sat
(:max-memory         18.15
 :memory             18.05
 :nlsat-propagations 7
 :nlsat-stages       4
 :num-allocs         41844
 :rlimit-count       3359
 :time               0.00
 :total-time         0.01)
